INCAR created by Atomic Simulation Environment
 ENCUT = 400.000000
 SIGMA = 0.100000
 EDIFF = 1.00e-04
 EDIFFG = -3.00e-02
 ALGO = fast
 GGA = PE
 PREC = Normal
 IBRION = 2
 IDIPOL = 3
 ISMEAR = -1
 ISTART = 0
 LREAL = .FALSE.
 ISPIN = 2
 MAGMOM = 36*0.6000 9*5.0000 1*0.6000
 # MAGMOM example for O on M-Ni-M surface.
